843489
30,61,92,48,9,55,17,68,74,5,40,76,29,95,20,19,8,32,56,46,94,24,77,50,78,28,39,93,25,16,11,18,58,89,23,42,51,64,53,97,22,10,27,70,33,45,66,81,57,15,60,14,82,87,49,35,98,79,67,12,62,71,54,43,90,52,7,88,84,2,4,63,1,26,34,41,96,37,75,86,44,85,80,13,38,91,83,21,72,6,3,65,0,47,36,73,69,31,59
